StudentsNr = 10;
InstructorsNr = 74;
DaysNr = 1;
SlotsPerDay = 60;
AvailabilitySlotsLenght = 6;
RoomNr = 1;
ProgrammNr = 2;
DegreeNr = 2;
RolesNr = 1;
CoursesNr = 2;
InstructorsProgramm = [{2}, {2}, {1, 2}, {2}, {2}, {1, 2}, {1}, {1}, {2}, {2}, {1, 2}, {2}, {1, 2}, {2}, {1, 2}, {1}, {1}, {1, 2}, {1}, {2}, {1}, {1}, {1, 2}, {1}, {2}, {2}, {2}, {1}, {1, 2}, {1, 2}, {1, 2}, {1}, {2}, {2}, {1}, {2}, {2}, {1, 2}, {1}, {1}, {1, 2}, {2}, {2}, {2}, {2}, {1, 2}, {1, 2}, {1}, {1, 2}, {2}, {2}, {2}, {1}, {1}, {2}, {1, 2}, {1}, {1, 2}, {1, 2}, {2}, {2}, {2}, {2}, {2}, {1}, {2}, {1, 2}, {1, 2}, {2}, {1, 2}, {1, 2}, {2}, {1}, {1}];
InstructorRolesPerProgramm = [|{3, 15, 18, 19, 21, 30, 31, 35, 39, 46, 49, 53, 56, 58, 59, 67, 68, 73}|{1, 3, 5, 15, 18, 26, 27, 30, 31, 33, 37, 45, 46, 49, 50, 55, 56, 58, 59, 60, 62, 64, 67, 68, 69}|];
InstructorsAvailability = [|0, 1, 1, 1, 1, 1, 0, 1, 1, 1, |1, 0, 0, 1, 1, 1, 1, 1, 0, 0, |0, 0, 0, 0, 1, 1, 1, 0, 1, 1, |1, 1, 1, 1, 1, 1, 1, 1, 0, 1, |0, 1, 1, 1, 0, 0, 0, 1, 1, 1, |1, 1, 1, 0, 1, 1, 1, 1, 1, 1, |0, 0, 0, 1, 1, 1, 1, 0, 1, 1, |1, 1, 1, 0, 1, 1, 1, 1, 0, 1, |0, 0, 0, 0, 1, 1, 1, 1, 1, 1, |1, 1, 1, 1, 0, 1, 1, 1, 1, 1, |1, 1, 1, 1, 1, 1, 1, 1, 1, 1, |0, 0, 1, 0, 0, 0, 0, 0, 1, 1, |0, 0, 0, 0, 0, 1, 1, 1, 1, 1, |0, 1, 1, 1, 1, 1, 1, 1, 1, 1, |1, 1, 1, 1, 1, 1, 1, 0, 0, 1, |1, 1, 1, 1, 1, 0, 0, 1, 0, 0, |0, 0, 1, 1, 1, 1, 1, 1, 1, 1, |0, 1, 1, 1, 1, 0, 1, 1, 1, 1, |0, 1, 1, 1, 1, 1, 1, 1, 1, 1, |0, 0, 1, 1, 1, 1, 1, 0, 1, 1, |1, 0, 1, 1, 1, 1, 1, 1, 1, 1, |1, 1, 1, 1, 1, 1, 1, 1, 1, 1, |0, 0, 1, 1, 1, 1, 1, 1, 1, 1, |0, 1, 1, 1, 1, 1, 1, 1, 1, 0, |1, 0, 1, 1, 1, 1, 1, 0, 0, 1, |0, 1, 1, 1, 0, 1, 1, 1, 1, 1, |0, 0, 1, 0, 1, 1, 1, 1, 1, 1, |1, 1, 1, 1, 1, 0, 1, 0, 1, 1, |0, 1, 0, 1, 1, 1, 1, 1, 0, 1, |0, 0, 1, 1, 1, 0, 1, 1, 1, 1, |1, 1, 1, 1, 1, 1, 1, 1, 1, 1, |0, 0, 1, 1, 1, 1, 0, 1, 0, 0, |1, 1, 1, 1, 1, 0, 1, 1, 0, 1, |0, 1, 1, 1, 1, 0, 1, 1, 0, 0, |0, 0, 1, 1, 1, 1, 1, 1, 1, 0, |0, 0, 1, 1, 1, 0, 1, 1, 1, 1, |0, 0, 0, 0, 1, 1, 1, 1, 1, 1, |1, 1, 1, 1, 0, 1, 1, 1, 0, 1, |0, 1, 1, 1, 1, 1, 1, 1, 1, 1, |0, 1, 1, 1, 1, 1, 1, 1, 1, 1, |0, 1, 1, 1, 0, 1, 0, 1, 1, 1, |1, 1, 1, 1, 1, 1, 1, 1, 1, 1, |1, 0, 1, 0, 0, 0, 0, 0, 1, 1, |1, 1, 1, 1, 1, 1, 1, 1, 1, 1, |1, 1, 1, 1, 1, 1, 1, 1, 1, 1, |0, 1, 1, 1, 1, 1, 0, 1, 1, 0, |1, 1, 0, 0, 1, 0, 0, 1, 1, 1, |0, 1, 1, 0, 1, 1, 1, 1, 1, 1, |1, 1, 1, 1, 1, 1, 1, 0, 0, 1, |1, 1, 1, 1, 1, 1, 1, 1, 0, 0, |0, 0, 1, 0, 1, 1, 1, 1, 1, 1, |1, 1, 1, 1, 1, 1, 0, 0, 0, 1, |1, 1, 1, 1, 1, 1, 1, 1, 1, 1, |0, 1, 0, 1, 1, 0, 1, 1, 1, 1, |0, 0, 1, 1, 0, 1, 1, 0, 0, 0, |0, 1, 1, 1, 1, 1, 1, 1, 1, 1, |1, 1, 1, 1, 0, 1, 1, 0, 1, 0, |0, 0, 0, 1, 1, 1, 1, 1, 1, 1, |1, 1, 0, 1, 1, 0, 1, 1, 1, 1, |1, 1, 1, 1, 1, 1, 1, 1, 1, 1, |0, 0, 1, 1, 1, 0, 1, 1, 1, 1, |0, 1, 1, 1, 1, 0, 1, 1, 1, 1, |1, 1, 0, 0, 1, 1, 1, 0, 0, 0, |0, 1, 1, 1, 1, 1, 1, 1, 1, 1, |1, 1, 1, 1, 1, 1, 1, 1, 1, 1, |1, 1, 1, 1, 0, 1, 1, 1, 1, 1, |0, 1, 0, 1, 1, 1, 1, 1, 1, 1, |0, 1, 1, 1, 1, 1, 1, 0, 1, 0, |1, 1, 1, 1, 1, 1, 1, 1, 1, 1, |0, 1, 1, 1, 1, 1, 1, 1, 1, 1, |1, 1, 1, 1, 1, 1, 1, 1, 1, 1, |1, 1, 1, 1, 1, 1, 1, 1, 1, 1, |0, 1, 0, 0, 1, 1, 1, 1, 1, 1, |1, 1, 1, 1, 1, 1, 1, 1, 1, 1|];
StudentsProgramm = [1, 1, 1, 1, 2, 1, 1, 1, 2, 1];
StudentsDegree = [1, 1, 2, 2, 2, 2, 2, 1, 2, 1];
StudentsSupervisorId = [41, 70, 23, 8, 50, 28, 41, 70, 62, 6];
StudentsCourseIds = [{2}, {1}, {1, 2}, {1, 2}, {1, 2}, {1, 2}, {1, 2}, {1}, {1, 2}, {1}];
StudentsAvailability = [|0, 1, 1, 1, 1, 1, 1, 1, 1, 1, |1, 1, 1, 1, 1, 1, 0, 1, 1, 1, |0, 1, 1, 1, 1, 1, 1, 1, 1, 1, |1, 1, 1, 1, 1, 1, 1, 1, 1, 1, |1, 1, 1, 1, 1, 1, 1, 1, 0, 0, |0, 0, 0, 1, 1, 0, 0, 1, 1, 1, |0, 0, 1, 1, 1, 0, 1, 1, 1, 1, |1, 1, 1, 1, 1, 1, 1, 1, 1, 1, |1, 1, 1, 1, 1, 1, 1, 1, 1, 1, |1, 1, 1, 0, 1, 0, 1, 0, 1, 1|];
TheoryticalMinCard = [0, 2, 2, 1, 0, 2, 1, 2, 0, 2];
CoursesInstructorIds = [{5, 8, 10, 11, 16, 22, 66}, {3, 4, 6, 7, 9, 10, 11, 12, 20, 26, 29, 30, 31, 33, 34, 35, 36, 37, 38, 39, 40, 41, 43, 44, 45, 47, 49, 50, 51, 53, 54, 55, 57, 58, 59, 61, 63, 64, 65, 66, 67, 69, 70, 71, 72, 73, 74}];
RolesDemands = [18];
RolesContinuity = [];
ExamLen = [2, 2, 1, 1, 1, 1, 1, 2, 1, 2];
LunchTsMinLen = 1;
LunchStarts = [25..35];
SupervisorAvailable = 5;
OptimalLunchLenght = [1, 1];
OptimalStartTs = [0, 0];
OptimalFinishTs = [1, 60];
MinimizeRooms = 200;
RolesSoftContinuity = [|1|1|];
SameDegreeInRoom = 20;
Mergeability = 2;
